p tw 75 80
1 2
2 13
3 4
4 5
5 6
5 7
6 72
7 8
8 9
9 10
9 20
10 11
11 12
12 14
13 24
14 15
15 16
16 17
17 18
18 19
18 20
19 72
20 21
21 22
22 23
23 25
24 35
25 26
26 27
27 28
28 29
29 30
30 31
31 32
32 33
33 34
33 53
34 36
35 46
36 37
37 38
38 39
39 40
40 41
41 42
42 43
43 44
44 45
45 47
46 57
47 48
48 49
49 50
50 51
51 52
52 64
53 54
54 55
55 56
56 58
57 68
58 59
59 60
60 61
61 62
62 63
63 64
64 65
65 66
66 67
66 69
67 72
68 74
69 70
70 71
71 72
72 73
74 75
74 3
75 72
